CMD:
./solvers/bin/cadical --plain --no-reduce -t 1600 ./data/cnfs//cal37/cal37.11.cnf

c --- [ banner ] -------------------------------------------------------------
c 
c CaDiCaL SAT Solver
c Copyright (c) 2016-2024
c A. Biere, M. Fleury, N. Froleyks, K. Fazekas, F. Pollitt, T. Faller
c JKU Linz, University of Freiburg, TU Wien
c 
c Version 2.1.3 5296d3d2a9bf48c154ab2acb5e44625776d821bf
c g++ (Gentoo 12.3.1_p20230526 p2) 12.3.1 20230526 -Wall -Wextra -O3 -DNDEBUG
c Sat Aug 9 07:26:21 PDT 2025 Linux cedar2.int.cedar.computecanada.ca 5.14.0-362.24.2.el9_3.x86_64 x86_64
c 
c --- [ limit ] --------------------------------------------------------------
c 
c setting time limit to 1600 seconds real time (due to '-t 1600')
c 
c --- [ parsing input ] ------------------------------------------------------
c 
c reading DIMACS file from './data/cnfs//cal37/cal37.11.cnf'
c opening file to read './data/cnfs//cal37/cal37.11.cnf'
c found 'p cnf 45936 127691' header
c parsed 127691 clauses in 0.02 seconds process time
c 
c --- [ options ] ------------------------------------------------------------
c 
c   --compact=false                (different from default 'true')
c   --decompose=false              (different from default 'true')
c   --deduplicate=false            (different from default 'true')
c   --elim=false                   (different from default 'true')
c   --probe=false                  (different from default 'true')
c   --reduce=false                 (different from default 'true')
c   --subsume=false                (different from default 'true')
c   --ternary=false                (different from default 'true')
c   --transred=false               (different from default 'true')
c   --vivify=false                 (different from default 'true')
c 
c --- [ solving ] ------------------------------------------------------------
c 
c time measured in process time since initialization
c 
c  seconds  reductions  redundant  irredundant
c         MB    restarts       trail       variables
c          level   conflicts       glue         remaining
c 
c *  0.02 23  0 0   0    0    0  0% 0 115521 42957 94%
c {  0.02 23  0 0   0    0    0  0% 0 115521 42957 94%
c i  0.02 23 139 0   0   49   38 11% 4 115521 42940 93%
c i  0.04 24 973 0   5  192  158 38% 3 115521 42928 93%
c i  0.06 24 458 0  36  412  349 34% 3 115521 42920 93%
c }  0.09 24 210 0 134 1002  847 26% 6 115521 42920 93%
c [  0.09 24  0 0 134 1002  847  0% 0 115521 42920 93%
c O  0.09 24 274 0 134 1003  848 14% 1 115521 42920 93%
c i  0.10 24 2048 0 134 1058  890 72% 3 115521 42914 93%
c i  0.11 24 2508 0 134 1319 1128 90% 12 115521 42911 93%
c i  0.13 24 2505 0 134 1662 1428 91% 11 115521 42898 93%
c ]  0.23 25 1405 0 135 3008 2477 60% 24 115521 42898 93%
c {  0.23 25 210 0 135 3008 2477 26% 6 115521 42898 93%
c F  0.23 25 209 0 136 3009 2478 26% 6 115521 42898 93%
c #  0.38 25 81 0 437 6012 5045 21% 6 115521 42898 93%
c }  0.43 25 74 0 544 7011 5903 21% 6 115521 42898 93%
c [  0.43 25 1405 0 544 7011 5903 60% 24 115521 42898 93%
c I  0.64 26 567 0 546 10013 8466 37% 18 115521 42898 93%
c i  0.74 26 459 0 547 11192 9097 33% 16 115521 42876 93%
c ]  1.05 27 301 0 549 15011 12519 31% 18 115521 42876 93%
c 
c  seconds  reductions    redundant  irredundant
c         MB    restarts         trail       variables
c          level    conflicts        glue         remaining
c 
c {  1.05 27 74 0 549 15011 12519 21% 6 115521 42876 93%
c B  1.05 27 74 0 549 15014 12522 21% 6 115521 42876 93%
c i  1.08 27 71 0 641 15424 12822 20% 7 115521 42855 93%
c W  1.49 29 49 0 1261 21017 16834 20% 7 111753 42855 93%
c F  1.98 30 41 0 2329 28019 22625 19% 8 111753 42855 93%
c i  2.01 30 40 0 2352 28613 22870 18% 8 111753 42841 93%
c }  2.17 30 38 0 2642 31011 24675 18% 8 111753 42841 93%
c [  2.17 30 301 0 2642 31011 24675 31% 18 111753 42841 93%
c B  2.59 30 200 0 2645 36021 26912 25% 15 111753 42841 93%
c W  3.47 38 128 0 2649 45024 31865 22% 14 111688 42841 93%
c O  4.32 38 90 0 2651 55025 36979 20% 13 111688 42841 93%
c i  4.43 38 87 0 2652 56244 37427 19% 13 111688 42677 93%
c i  4.84 38 77 0 2656 61032 39863 19% 13 111688 42676 93%
c i  4.90 38 75 0 2656 61731 40049 19% 13 111688 42146 92%
c i  4.91 38 75 0 2656 61914 40110 19% 12 111688 41955 91%
c i  4.91 38 75 0 2656 61958 40122 19% 12 111688 41740 91%
c i  4.91 38 75 0 2656 61999 40138 19% 12 111688 41575 91%
c i  4.92 38 75 0 2656 62022 40143 19% 12 111688 41314 90%
c i  4.92 38 75 0 2656 62033 40147 19% 12 111688 41155 90%
c i  4.92 38 75 0 2656 62035 40148 19% 12 111688 41011 89%
c 
c  seconds  reductions     redundant   irredundant
c         MB    restarts          trail        variables
c          level     conflicts        glue          remaining
c 
c ]  4.92 38 75 0 2656 62037 40148 19% 12 111688 40421 88%
c 0  4.92 38 75 0 2656 62037 40148 19% 12 111688 40421 88%
c 
c --- [ result ] -------------------------------------------------------------
c 
s UNSATISFIABLE
c 
c --- [ run-time profiling ] -------------------------------------------------
c 
c process time taken by individual solving procedures
c (percentage relative to process time for solving)
c 
c         4.89  100.00% search
c         3.47   70.84% stable
c         1.35   27.60% unstable
c         0.08    1.53% walk
c         0.02    0.44% parse
c         0.00    0.02% lucky
c         0.00    0.00% simplify
c   =================================
c         4.89   99.55% solve
c 
c last line shows process time for solving
c (percentage relative to total process time)
c 
c --- [ statistics ] ---------------------------------------------------------
c 
c chronological:             16973        27.36 %  of conflicts
c conflicts:                 62037     12676.24    per second
c decisions:                171020     34945.12    per second
c fixed:                      5514        12.00 %  of all variables
c learned:                   60253        97.12 %  per conflict
c learned_lits:            3185890       100.00 %  learned literals
c minimized:                     0         0.00 %  learned literals
c shrunken:                1691478        53.09 %  learned literals
c minishrunken:             395142        12.40 %  learned literals
c otfs:                        385         0.62 %  of conflict
c propagations:           74283887        15.18 M  per second
c rephased:                     10      6203.70    interval
c restarts:                   2656        23.36    interval
c stabilizing:                   3        66.06 %  of conflicts
c subsumed:                  18558        10.56 %  of all clauses
c strengthened:                330         0.19 %  of all clauses
c walked:                        2     31018.50    interval
c 
c seconds are measured in process time for solving
c 
c --- [ resources ] ----------------------------------------------------------
c 
c total process time since initialization:         4.92    seconds
c total real time since initialization:            4.95    seconds
c maximum resident set size of process:           36.52    MB
c 
c --- [ shutting down ] ------------------------------------------------------
c 
c exit 20
